set COLORS := red blue;

set NODES := A B C D E F G;

set EDGES := (A, B)
	     (B, A) (B, C) (B, D) (B, E) (B, F)
	     (C, B) (C, D)
	     (D, B) (D, C) (D, E) (D, G)
	     (E, F) (E, B) (E, D) (E, G)
	     (F, B) (F, E)
	     (G, D) (G, E)
